
Gurobi 5.6.3 (linux64) logging started Sun May 31 08:20:17 2015


Gurobi 5.6.3 (linux64) logging started Sun May 31 18:06:00 2015


Gurobi 5.6.3 (linux64) logging started Sun May 31 18:09:13 2015


Gurobi 5.6.3 (linux64) logging started Sun May 31 18:09:23 2015


Gurobi 5.6.3 (linux64) logging started Sun May 31 18:09:45 2015


Gurobi 5.6.3 (linux64) logging started Sun May 31 18:10:32 2015


Gurobi 5.6.3 (linux64) logging started Sun May 31 18:10:53 2015


Gurobi 5.6.3 (linux64) logging started Sun May 31 18:12:13 2015


Gurobi 5.6.3 (linux64) logging started Tue Jun  9 15:23:41 2015


Gurobi 5.6.3 (linux64) logging started Sat Jun 13 02:36:08 2015


Gurobi 5.6.3 (linux64) logging started Sat Jun 13 02:37:27 2015


Gurobi 5.6.3 (linux64) logging started Sat Jun 13 14:52:30 2015

